NAME : Unnamed.374.tour
COMMENT : Length = 374
COMMENT : Found by LKH [Keld Helsgaun] Thu Oct 02 13:46:24 2014
TYPE : TOUR
DIMENSION : 23
TOUR_SECTION
1
7
10
2
11
4
6
3
9
8
12
5
20
18
21
13
23
17
14
19
16
22
15
-1
EOF
